0 0 0 0
0 1 0 0
0 2 0 0
0 3 2 2
0 4 0 1
0 5 0 3
0 6 2 9
0 7 0 5
0 8 2 8
0 9 0 2
0 10 2 5
0 11 2 7
0 12 1 22
0 13 0 31
0 14 2 17
0 15 1 11
0 16 0 8
0 17 0 17
0 18 1 18
0 19 0 25
0 20 0 27
0 21 2 22
0 22 0 5
0 23 2 36
0 24 2 29
0 25 0 27
0 26 0 33
0 27 0 26
0 28 0 38
0 29 0 33
0 30 1 38
0 31 0 42
